p cnf 1205 1305
c ind 849 850 851 864 871 897 958 959 972 979 0
c ind 983 985 988 1004 1006 1009 1021 1022 1041 1043 0
c ind 1047 1058 1059 1063 1064 1065 1069 1071 842 957 0
c ind 872 884 843 844 956 847 848 955 1158 1159 0
c ind 1157 1156 1190 1195 1172 1181 1176 1186 1203 1189 0
c ind 1194 1171 1180 1175 1185 1202 1154 1155 1188 1193 0
c ind 1170 1179 1174 1184 1201 1153 1187 1192 1169 1178 0
c ind 1173 1183 1200 1148 1164 1168 1198 1152 1151 1150 0
c ind 1149 1146 1147 1166 1196 1197 1167 1145 1140 1144 0
c ind 1143 1142 1141 1191 1177 1182 1199 845 846 1138 0
c ind 1139 1131 1132 1137 1165 1136 1135 1134 1133 1129 0
c ind 1130 1128 1161 1127 1125 1126 1162 1124 1119 1123 0
c ind 1122 1121 1120 1117 1118 1116 1111 1115 1114 1113 0
c ind 1112 1109 1110 1163 1102 1103 1108 1107 1106 1105 0
c ind 1104 1160 1100 1101 1099 1098 1096 1097 1095 1090 0
c ind 1094 1093 1092 1091 1088 1089 1087 1082 1086 1085 0
c ind 1084 1083 1080 1081 1073 1074 1079 1078 1077 1076 0
c ind 1075 1053 1054 1052 1051 1050 1072 1062 1060 1061 0
c ind 1049 1048 1070 1057 1046 1068 1066 1067 1055 1056 0
c ind 1045 1044 1037 1042 1040 1038 1039 1036 1029 1028 0
c ind 1035 1034 1033 1032 1031 1030 1027 1026 1025 1024 0
c ind 1023 841 1016 1015 1013 1014 1012 1011 1017 1018 0
c ind 1010 1008 1019 1007 1020 1005 1003 1001 1002 1000 0
c ind 999 998 997 996 995 994 992 993 991 990 0
c ind 989 987 986 962 984 982 980 981 854 978 0
c ind 973 977 974 975 969 976 971 967 968 970 0
c ind 966 961 965 963 964 960 954 947 939 953 0
c ind 952 951 950 933 932 931 949 930 948 929 0
c ind 928 927 946 945 944 943 942 941 940 938 0
c ind 937 936 935 934 926 919 911 925 924 923 0
c ind 922 905 904 903 921 902 920 901 900 899 0
c ind 918 917 916 915 914 913 912 910 909 908 0
c ind 907 906 898 896 894 895 885 886 893 892 0
c ind 891 890 889 887 888 881 880 882 883 879 0
c ind 878 877 876 874 875 873 870 869 865 866 0
c ind 867 868 861 863 860 859 862 853 858 852 0
c ind 857 855 856 1 0
c ret 609 610 611 612 613 614 615 616 617 618 0
c ret 619 620 621 622 623 624 625 626 627 628 0
c ret 629 630 631 632 633 634 635 636 637 638 0
c ret 639 640 641 642 643 644 645 646 647 648 0
c ret 649 650 651 652 653 654 655 656 657 658 0
c ret 659 660 661 662 663 664 665 666 667 668 0
c ret 669 670 671 672 673 674 675 676 677 678 0
c ret 679 680 681 682 683 684 685 686 687 688 0
c ret 689 690 691 692 693 694 695 696 697 698 0
c ret 699 700 701 702 703 704 705 706 707 708 0
c ret 709 710 711 712 713 714 715 716 717 718 0
c ret 719 720 721 722 723 724 725 726 727 728 0
c ret 729 730 731 732 733 734 735 736 737 738 0
c ret 739 740 741 742 743 744 745 746 747 748 0
c ret 749 750 751 752 753 754 755 756 757 758 0
c ret 759 760 761 762 763 764 765 766 767 768 0
c ret 769 770 771 772 773 774 775 776 777 778 0
c ret 779 780 781 782 783 784 785 786 787 788 0
c ret 789 790 791 792 793 794 795 796 797 798 0
c ret 799 800 801 802 304 803 804 310 311 312 0
c ret 313 805 314 315 316 317 318 319 320 321 0
c ret 322 323 324 325 326 327 328 329 330 331 0
c ret 332 333 334 335 806 807 336 337 338 808 0
c ret 339 809 340 341 342 343 344 345 346 305 0
c ret 347 348 349 350 351 352 353 354 355 356 0
c ret 810 811 357 358 812 359 813 360 361 362 0
c ret 363 364 365 366 367 368 369 370 371 372 0
c ret 373 814 374 375 376 377 378 379 380 815 0
c ret 816 381 817 382 818 383 384 385 386 387 0
c ret 306 388 389 390 391 392 393 394 395 396 0
c ret 819 397 398 399 400 401 820 402 821 403 0
c ret 404 405 406 822 823 407 408 409 410 411 0
c ret 412 413 414 415 416 417 418 419 420 421 0
c ret 824 422 825 423 424 425 826 426 827 427 0
c ret 307 428 429 430 431 432 433 434 435 436 0
c ret 437 438 439 440 828 441 442 443 829 444 0
c ret 830 445 446 831 832 447 448 449 450 451 0
c ret 452 453 454 455 456 457 458 833 834 459 0
c ret 460 461 462 835 463 464 465 466 467 468 0
c ret 469 470 471 472 473 474 475 476 477 836 0
c ret 478 479 480 481 837 482 838 483 839 840 0
c ret 484 485 486 487 488 489 490 491 492 493 0
c ret 494 495 496 497 498 308 499 500 501 502 0
c ret 503 504 505 506 507 508 509 510 511 512 0
c ret 513 514 515 516 517 518 519 520 521 522 0
c ret 523 524 525 526 527 528 529 530 531 532 0
c ret 533 534 535 536 537 309 538 539 540 541 0
c ret 542 543 544 545 546 547 548 549 550 551 0
c ret 552 553 554 555 556 557 558 559 560 561 0
c ret 562 563 564 565 566 567 568 569 570 571 0
c ret 572 573 574 575 576 577 578 579 580 581 0
c ret 582 583 584 585 586 587 588 589 590 591 0
c ret 592 593 594 595 596 597 598 599 600 601 0
c ret 602 603 604 605 606 607 608 0
2 138 299 -300 0
2 3 299 -300 0
-2 300 0
-2 -299 0
-2 -3 -138 0
3 -4 -61 -128 0
3 4 61 118 0
3 4 61 -128 0
3 -4 -61 118 0
-3 4 -61 0
-3 -4 61 0
-3 -118 128 0
4 -5 -18 0
4 -5 55 0
-4 5 0
-4 18 -55 0
5 6 -12 0
-5 -6 0
-5 12 0
6 -8 -9 0
6 -7 -9 0
-6 9 0
-6 7 8 0
7 1073 0
7 -1074 -1080 0
7 1074 -1081 0
-7 -1073 1074 1081 0
-7 -1073 -1074 1080 0
-7 8 0
8 -1082 1088 0
8 1082 1089 0
7 -8 -1082 -1088 0
7 -8 1082 -1089 0
9 -10 -11 0
-7 9 -11 0
-9 11 0
7 -9 10 0
-7 10 0
10 1082 -1089 0
10 -1082 -1088 0
7 -10 -1082 1088 0
7 -10 1082 1089 0
11 1073 0
11 -1074 1080 0
11 1074 1081 0
-11 -1073 1074 -1081 0
-11 -1073 -1074 -1080 0
12 13 -1131 0
-12 1131 0
-12 -13 0
13 -14 -15 0
13 -14 -16 17 0
-13 14 0
-13 15 -17 0
-13 15 16 0
14 1102 0
14 -1103 1109 0
14 1103 1110 0
-14 -1102 1103 -1110 0
-14 -1102 -1103 -1109 0
15 1102 0
15 -1103 -1109 0
15 1103 -1110 0
-15 -1102 1103 1110 0
-15 -1102 -1103 1109 0
16 1111 1118 0
16 -1111 1117 0
-16 -1111 -1117 0
-16 1111 -1118 0
15 17 -1111 1117 0
15 17 1111 1118 0
-15 -17 0
-17 1111 -1118 0
-17 -1111 -1117 0
18 -19 -54 -1181 0
18 19 -20 -54 0
-18 54 0
-18 -19 1181 0
-18 19 20 0
19 1068 -1070 0
-19 -1068 0
-19 1070 0
20 -21 -1180 0
20 21 -22 0
-20 -21 1180 0
-20 21 22 0
21 1040 -1042 0
-21 -1040 0
-21 1042 0
22 23 46 53 0
22 23 46 -49 0
-22 -23 0
-22 -46 0
-22 49 -53 0
23 -44 841 -1016 0
23 24 841 1016 0
-23 -841 0
-23 44 -1016 0
-23 -24 1016 0
24 -25 -1177 0
-24 1177 0
-24 25 0
25 -26 40 0
-25 26 0
-25 -40 0
26 -33 34 0
26 27 34 -906 0
-26 -34 0
-26 -27 33 0
-26 33 906 0
27 28 0
27 31 -905 0
27 31 911 0
-27 -28 -31 0
-27 -28 905 -911 0
28 -29 30 -899 -906 0
-28 29 0
-28 -30 0
-28 899 0
-28 906 0
29 900 901 902 0
-29 -900 0
-29 -902 0
-29 -901 0
30 903 -904 0
-30 -903 0
-30 904 0
31 32 905 911 -912 0
-31 -905 0
-31 -32 0
-31 912 0
-31 -911 0
32 919 920 0
-32 -919 0
-32 -920 0
29 33 -899 0
30 33 -899 -905 0
-33 899 0
-29 -33 905 0
-29 -30 -33 0
34 36 39 0
34 36 -38 0
34 35 36 0
-34 -36 0
-34 -35 38 -39 0
35 928 929 930 0
-35 -928 0
-35 -930 0
-35 -929 0
35 36 -927 0
36 37 -927 -933 0
-36 927 0
-35 -36 933 0
-35 -36 -37 0
37 931 -932 0
-37 -931 0
-37 932 0
38 939 940 0
38 939 947 948 0
-38 -939 0
-38 -940 -947 0
-38 -940 -948 0
37 39 -927 933 -934 0
-39 934 0
-37 -39 0
-39 927 0
-39 -933 0
40 -41 -873 0
40 -43 -873 0
40 -42 -873 0
-40 873 0
-40 41 42 43 0
41 -874 875 876 0
-41 874 0
-41 -876 0
-41 -875 0
42 879 882 883 0
-42 -879 0
-42 -883 0
-42 -882 0
43 -879 880 881 0
-43 879 0
-43 -881 0
-43 -880 0
44 -45 1178 0
24 44 45 0
-44 -45 -1178 0
-24 -44 45 0
45 982 -984 0
-45 -982 0
-45 984 0
46 -47 -48 -1026 0
46 -47 -48 -1027 0
-46 48 0
-46 47 0
-46 1026 1027 0
47 1029 1030 1031 1032 0
-47 -1032 0
-47 -1031 0
-47 -1029 0
-47 -1030 0
48 -1023 -1024 -1025 1028 0
-48 1025 0
-48 -1028 0
-48 1023 0
-48 1024 0
44 49 -50 0
-44 -49 0
-49 50 0
50 51 52 0
-50 -51 0
-50 -52 0
51 1003 -1005 0
-51 -1003 0
-51 1005 0
52 995 996 997 0
-52 -995 0
-52 -997 0
-52 -996 0
51 53 -841 0
53 -841 1179 0
-53 841 0
-51 -53 -1179 0
54 -1037 1044 0
-54 1037 0
-54 -1044 0
55 -56 -1037 0
20 22 55 0
20 55 -1037 0
22 55 -56 0
-22 -55 1037 0
-20 -55 56 0
56 58 1044 0
56 -57 58 0
56 58 1037 0
-56 -58 0
-56 57 -1037 -1044 0
57 -1045 1046 0
-57 1045 0
-57 -1046 0
58 59 -60 0
-58 -59 0
-58 60 0
59 1048 -1049 -1050 1051 0
-59 -1048 0
-59 -1051 0
-59 1050 0
-59 1049 0
60 -1037 -1044 -1045 1046 0
-60 1045 0
-60 -1046 0
-60 1037 0
-60 1044 0
61 -62 -73 0
61 -62 112 0
-61 62 0
-61 73 -112 0
62 63 -69 0
-62 -63 0
-62 69 0
63 -65 -66 0
63 -64 -66 0
-63 66 0
-63 64 65 0
64 536 0
64 -537 -543 0
64 537 -544 0
-64 -536 537 544 0
-64 -536 -537 543 0
-64 65 0
65 -545 551 0
65 545 552 0
64 -65 -545 -551 0
64 -65 545 -552 0
-64 66 -67 0
66 -67 -68 0
-66 67 0
64 -66 68 0
67 536 0
67 -537 543 0
67 537 544 0
-67 -536 537 -544 0
-67 -536 -537 -543 0
-64 68 0
68 545 -552 0
68 -545 -551 0
64 -68 -545 551 0
64 -68 545 552 0
69 -70 -71 -72 0
-69 70 0
-69 71 0
-69 72 0
70 -565 -739 -768 0
-70 565 0
-70 739 0
-70 768 0
71 -623 -652 0
-71 623 0
-71 652 0
72 -594 -681 -710 0
-72 594 0
-72 681 0
-72 710 0
73 -74 -111 -818 0
73 74 -75 -111 0
-73 111 0
-73 -74 818 0
-73 74 75 0
74 531 -533 0
-74 -531 0
-74 533 0
75 -76 -817 0
75 76 -77 0
-75 -76 817 0
-75 76 77 0
76 503 -505 0
-76 -503 0
-76 505 0
77 78 103 110 0
77 78 103 -106 0
-77 -78 0
-77 -103 0
-77 106 -110 0
78 -101 304 -479 0
78 79 304 479 0
-78 -304 0
-78 101 -479 0
-78 -79 479 0
79 -80 -814 0
-79 814 0
-79 80 0
80 81 -85 0
-80 -81 0
-80 85 0
81 -82 -336 0
81 -84 -336 0
81 -83 -336 0
-81 336 0
-81 82 83 84 0
82 -337 338 339 0
-82 337 0
-82 -339 0
-82 -338 0
83 342 345 346 0
-83 -342 0
-83 -346 0
-83 -345 0
84 -342 343 344 0
-84 342 0
-84 -344 0
-84 -343 0
85 86 -93 0
85 86 96 -369 0
-85 -86 0
-85 93 -96 0
-85 93 369 0
86 -87 90 0
86 90 390 0
-86 -90 0
-86 87 -390 0
87 -89 393 396 0
87 -88 -89 393 0
-87 -393 0
-87 89 0
-87 88 -396 0
88 394 -395 0
-88 -394 0
-88 395 0
89 391 392 0
-89 -391 0
-89 -392 0
88 -89 90 91 -92 0
89 -90 0
-90 -91 0
-88 -90 0
-90 92 0
91 402 403 0
91 402 410 411 0
-91 -402 0
-91 -403 -410 0
-91 -403 -411 0
92 -390 393 396 -397 0
-92 397 0
-92 -396 0
-92 390 0
-92 -393 0
93 94 -362 0
93 95 -362 -368 0
-93 362 0
-93 -94 368 0
-93 -94 -95 0
94 363 364 365 0
-94 -363 0
-94 -365 0
-94 -364 0
95 366 -367 0
-95 -366 0
-95 367 0
96 97 100 0
-96 -97 0
-96 -100 0
97 -98 -99 -382 0
97 -98 -99 -383 0
-97 99 0
-97 98 0
-97 382 383 0
-94 95 98 -362 -369 0
94 -98 0
-95 -98 0
-98 362 0
-98 369 0
99 368 374 -375 0
-99 375 0
-99 -374 0
-99 -368 0
-98 100 368 -374 0
98 -100 0
-100 374 0
-100 -368 0
101 -102 815 0
79 101 102 0
-101 -102 -815 0
-79 -101 102 0
102 445 -447 0
-102 -445 0
-102 447 0
103 -104 -105 -489 0
103 -104 -105 -490 0
-103 105 0
-103 104 0
-103 489 490 0
104 492 493 494 495 0
-104 -495 0
-104 -494 0
-104 -492 0
-104 -493 0
105 -486 -487 -488 491 0
-105 488 0
-105 -491 0
-105 486 0
-105 487 0
101 106 -107 0
-101 -106 0
-106 107 0
107 108 109 0
-107 -108 0
-107 -109 0
108 458 459 460 0
-108 -458 0
-108 -460 0
-108 -459 0
109 466 -468 0
-109 -466 0
-109 468 0
109 110 -304 0
110 -304 816 0
-110 304 0
-109 -110 -816 0
111 -500 507 0
-111 500 0
-111 -507 0
112 -113 -500 0
75 77 112 0
75 112 -500 0
77 112 -113 0
-77 -112 500 0
-75 -112 113 0
113 115 507 0
113 -114 115 0
113 115 500 0
-113 -115 0
-113 114 -500 -507 0
114 -508 509 0
-114 508 0
-114 -509 0
115 116 -117 0
-115 -116 0
-115 117 0
116 511 -512 -513 514 0
-116 -511 0
-116 -514 0
-116 513 0
-116 512 0
117 -500 -507 -508 509 0
-117 508 0
-117 -509 0
-117 500 0
-117 507 0
-5 118 -119 0
-5 118 127 0
5 -118 0
-118 119 -127 0
19 -54 119 -120 0
-19 -54 119 -1203 0
54 -119 0
19 -119 120 0
-19 -119 1203 0
-21 120 -1202 0
21 120 -121 0
-21 -120 1202 0
21 -120 121 0
46 121 122 126 0
46 121 122 -125 0
-46 -121 0
-121 -122 0
-121 125 -126 0
122 -124 841 -1016 0
122 123 841 1016 0
-122 -841 0
-122 124 -1016 0
-122 -123 1016 0
-25 123 -1199 0
-123 1199 0
25 -123 0
-45 124 1200 0
45 123 124 0
-45 -124 -1200 0
45 -123 -124 0
-50 124 125 0
50 -125 0
-124 -125 0
51 126 -841 0
126 -841 1201 0
-126 841 0
-51 -126 -1201 0
-56 121 127 0
120 127 -1037 0
-56 127 -1037 0
120 121 127 0
56 -120 -127 0
-121 -127 1037 0
-62 128 -129 0
-62 128 137 0
62 -128 0
-128 129 -137 0
74 -111 129 -130 0
-74 -111 129 -840 0
111 -129 0
74 -129 130 0
-74 -129 840 0
-76 130 -839 0
76 130 -131 0
-76 -130 839 0
76 -130 131 0
103 131 132 136 0
103 131 132 -135 0
-103 -131 0
-131 -132 0
-131 135 -136 0
132 -134 304 -479 0
132 133 304 479 0
-132 -304 0
-132 134 -479 0
-132 -133 479 0
-80 133 -836 0
-133 836 0
80 -133 0
-102 134 837 0
102 133 134 0
-102 -134 -837 0
102 -133 -134 0
-107 134 135 0
107 -135 0
-134 -135 0
109 136 -304 0
136 -304 838 0
-136 304 0
-109 -136 -838 0
-113 131 137 0
130 137 -500 0
-113 137 -500 0
130 131 137 0
113 -130 -137 0
-131 -137 500 0
138 139 148 -157 -278 0
138 -139 -148 -157 -278 0
-138 278 0
-138 -139 148 0
-138 157 0
-138 139 -148 0
-5 139 -140 0
-5 139 147 0
5 -139 0
-139 140 -147 0
19 -54 140 -141 0
-19 -54 140 -1176 0
54 -140 0
19 -140 141 0
-19 -140 1176 0
-21 141 -1175 0
21 141 -142 0
-21 -141 1175 0
21 -141 142 0
46 142 143 146 0
46 142 143 -145 0
-46 -142 0
-142 -143 0
-142 145 -146 0
143 -144 841 -1016 0
25 143 841 1016 0
-143 -841 0
-143 144 -1016 0
-25 -143 1016 0
-45 144 1173 0
25 45 144 0
-45 -144 -1173 0
-25 45 -144 0
-50 144 145 0
50 -145 0
-144 -145 0
51 146 -841 0
146 -841 1174 0
-146 841 0
-51 -146 -1174 0
-56 142 147 0
141 147 -1037 0
-56 147 -1037 0
141 142 147 0
56 -141 -147 0
-142 -147 1037 0
-62 148 -149 0
-62 148 156 0
62 -148 0
-148 149 -156 0
74 -111 149 -150 0
-74 -111 149 -813 0
111 -149 0
74 -149 150 0
-74 -149 813 0
-76 150 -812 0
76 150 -151 0
-76 -150 812 0
76 -150 151 0
103 151 152 155 0
103 151 152 -154 0
-103 -151 0
-151 -152 0
-151 154 -155 0
152 -153 304 -479 0
80 152 304 479 0
-152 -304 0
-152 153 -479 0
-80 -152 479 0
-102 153 810 0
80 102 153 0
-102 -153 -810 0
-80 102 -153 0
-107 153 154 0
107 -154 0
-153 -154 0
109 155 -304 0
155 -304 811 0
-155 304 0
-109 -155 -811 0
-113 151 156 0
150 156 -500 0
-113 156 -500 0
150 151 156 0
113 -150 -156 0
-151 -156 500 0
157 158 171 -185 -239 0
157 -158 -171 -185 -239 0
-157 239 0
-157 -158 171 0
-157 185 0
-157 158 -171 0
-5 158 -159 0
-5 158 -169 0
-5 158 -168 0
5 -158 0
-158 159 168 169 0
159 162 -163 0
-50 159 160 -163 0
-159 163 0
-159 -160 -162 0
50 -159 -162 0
-45 160 1183 0
45 160 161 0
-45 -160 -1183 0
45 -160 -161 0
-25 161 -1182 0
-161 1182 0
25 -161 0
51 162 -841 0
162 -841 1184 0
-162 841 0
-51 -162 -1184 0
163 164 -165 0
-163 -164 0
-163 165 0
-160 164 841 -1016 0
161 164 841 1016 0
-164 -841 0
160 -164 -1016 0
-161 -164 1016 0
46 165 166 0
-46 -165 0
-165 -166 0
-21 166 -1037 0
166 -167 -1037 0
-166 1037 0
21 -166 167 0
-19 58 167 1044 0
-57 58 167 -1044 0
-58 -167 0
57 -167 -1044 0
19 -167 1044 0
-19 -54 168 -1186 0
-168 1186 0
19 -168 0
54 -168 0
-21 169 -170 -1185 0
-169 1185 0
21 -169 0
-169 170 0
167 170 -1037 0
-170 1037 0
-167 -170 0
171 -172 -184 0
171 -181 -184 0
171 -182 -184 0
-171 184 0
-171 172 181 182 0
172 175 -176 0
-107 172 173 -176 0
-172 176 0
-172 -173 -175 0
107 -172 -175 0
-102 173 820 0
102 173 174 0
-102 -173 -820 0
102 -173 -174 0
-80 174 -819 0
-174 819 0
80 -174 0
109 175 -304 0
175 -304 821 0
-175 304 0
-109 -175 -821 0
176 177 -178 0
-176 -177 0
-176 178 0
-173 177 304 -479 0
174 177 304 479 0
-177 -304 0
173 -177 -479 0
-174 -177 479 0
103 178 179 0
-103 -178 0
-178 -179 0
-76 179 -500 0
179 -180 -500 0
-179 500 0
76 -179 180 0
-74 115 180 507 0
-114 115 180 -507 0
-115 -180 0
114 -180 -507 0
74 -180 507 0
-74 -111 181 -823 0
-181 823 0
74 -181 0
111 -181 0
-76 182 -183 -822 0
-182 822 0
76 -182 0
-182 183 0
180 183 -500 0
-183 500 0
-180 -183 0
63 -70 -71 -72 184 0
-63 -184 0
72 -184 0
71 -184 0
70 -184 0
185 186 209 217 -225 0
185 186 -209 -217 -225 0
-185 225 0
-185 -209 217 0
-185 -186 0
-185 209 -217 0
186 187 -198 0
186 -187 198 0
-186 -187 -198 0
-186 187 198 0
187 188 -194 -197 0
187 188 -194 841 0
-187 194 0
-187 -188 0
-187 197 -841 0
188 189 193 0
188 191 193 0
188 189 -191 841 0
-188 -189 -191 0
-188 191 -193 0
-188 -193 -841 0
-26 189 -1160 0
-26 40 189 190 0
26 -189 0
-189 -190 1160 0
-40 -189 1160 0
190 852 1197 0
-190 -852 0
-190 -1197 0
191 -192 1016 1017 1020 0
-191 192 0
-191 -1020 0
-191 -1016 0
-191 -1017 0
192 1018 1019 0
-192 -1018 0
-192 -1019 0
193 960 -1198 0
-189 193 -960 0
189 -193 -960 0
-193 960 1198 0
13 194 -195 -1131 0
-194 1131 0
-13 -194 0
-194 195 0
9 195 -196 0
8 195 -196 -1073 0
-195 196 0
-8 -9 -195 0
-9 -195 1073 0
46 60 196 0
46 59 196 0
-46 -196 0
-59 -60 -196 0
52 -193 197 0
-52 -197 0
193 -197 0
198 199 -206 304 0
198 199 -205 -206 0
-198 206 0
-198 -199 0
-198 205 -304 0
199 200 204 0
199 202 204 0
199 200 -202 304 0
-199 -200 -202 0
-199 202 -204 0
-199 -204 -304 0
-85 200 -797 0
81 -85 200 201 0
85 -200 0
-200 -201 797 0
-81 -200 797 0
201 315 834 0
-201 -315 0
-201 -834 0
202 -203 479 480 483 0
-202 203 0
-202 -483 0
-202 -479 0
-202 -480 0
203 481 482 0
-203 -481 0
-203 -482 0
204 423 -835 0
-200 204 -423 0
200 -204 -423 0
-204 423 835 0
108 -204 205 0
-108 -205 0
204 -205 0
-69 206 -207 0
69 -206 0
-206 207 0
66 207 -208 0
65 207 -208 -536 0
-207 208 0
-65 -66 -207 0
-66 -207 536 0
103 117 208 0
103 116 208 0
-103 -208 0
-116 -117 -208 0
209 -214 841 0
52 209 210 -214 0
-209 214 0
-209 -210 -841 0
-52 -209 -841 0
210 211 -960 0
-26 210 -213 960 0
-210 -211 -960 0
26 -210 960 0
-210 213 960 0
-26 211 -212 0
26 -211 0
-211 212 0
212 -1160 -1162 0
40 212 1160 0
212 -1160 -1166 0
-40 -212 1160 0
-212 -1160 1162 1166 0
213 -1160 1162 1168 0
-213 1160 0
-213 -1168 0
-213 -1162 0
-191 -194 214 215 0
-194 210 214 215 0
194 -214 0
-214 -215 0
191 -210 -214 0
211 215 -216 0
-215 216 0
-211 -215 0
-191 216 841 0
-216 -841 0
191 -216 0
-206 217 218 0
206 -217 0
-217 -218 0
202 218 -219 0
218 223 224 0
218 -219 223 0
-218 219 -224 0
-202 -218 -223 0
-218 219 -223 0
219 220 -423 0
-85 219 -222 423 0
-219 -220 -423 0
85 -219 423 0
-219 222 423 0
-85 220 -221 0
85 -220 0
-220 221 0
221 -797 -799 0
81 221 797 0
221 -797 -803 0
-81 -221 797 0
-221 -797 799 803 0
222 -797 799 805 0
-222 797 0
-222 -805 0
-222 -799 0
202 223 304 0
-220 223 304 0
-223 -304 0
-202 220 -223 0
108 224 -304 0
-224 304 0
-108 -224 0
225 226 231 233 -234 0
225 -226 -231 233 -234 0
-225 -233 0
-225 226 -231 0
-225 234 0
-225 -226 231 0
-85 -207 226 227 -228 0
-226 228 0
85 -226 0
207 -226 0
-226 -227 0
-108 227 -304 0
-227 304 0
108 -227 0
228 -229 -230 -797 799 0
-228 230 0
-228 797 0
-228 229 0
-228 -799 0
229 -565 -594 -739 -768 0
-229 768 0
-229 565 0
-229 739 0
-229 594 0
-71 230 -681 -710 0
-230 681 0
-230 710 0
71 -230 0
-12 -26 -195 231 -232 0
-231 232 0
12 -231 0
195 -231 0
26 -231 0
232 841 -1160 1162 0
52 232 -1160 1162 0
-232 1160 0
-232 -1162 0
-52 -232 -841 0
-8 -10 -11 233 0
8 -233 0
10 -233 0
11 -233 0
27 34 234 -235 0
-33 34 234 -235 0
-234 235 0
-34 -234 0
-27 33 -234 0
40 -196 235 -236 -1102 0
-235 236 0
-235 1102 0
196 -235 0
-40 -235 0
236 237 -238 -843 0
236 237 -238 -844 0
-236 238 0
-236 -237 0
-236 843 844 0
-52 237 -841 0
-237 841 0
52 -237 0
238 -845 -1131 0
238 846 -1131 0
-238 1131 0
-238 845 -846 0
239 240 249 -258 -268 0
239 -240 -249 -258 -268 0
239 240 249 258 268 0
239 -240 -249 258 268 0
-239 240 -249 0
-239 -240 249 0
-239 258 -268 0
-239 -258 268 0
-184 240 -241 0
-184 240 -248 0
-184 240 -247 0
184 -240 0
-240 241 247 248 0
241 244 -245 0
-107 241 242 -245 0
-241 245 0
-241 -242 -244 0
107 -241 -244 0
-102 242 829 0
102 242 243 0
-102 -242 -829 0
102 -242 -243 0
-80 243 -828 0
-243 828 0
80 -243 0
109 244 -304 0
244 -304 830 0
-244 304 0
-109 -244 -830 0
-178 245 246 0
178 -245 0
-245 -246 0
-242 246 304 -479 0
243 246 304 479 0
-246 -304 0
242 -246 -479 0
-243 -246 479 0
-74 -111 247 -832 0
-247 832 0
74 -247 0
111 -247 0
-76 -183 248 -831 0
-248 831 0
76 -248 0
183 -248 0
6 249 250 -1102 -1131 0
-249 1131 0
-249 -250 0
-249 1102 0
-6 -249 0
165 250 -256 0
250 -251 -256 0
250 -255 -256 0
-250 256 0
-165 -250 251 255 0
251 252 -841 1193 0
51 251 252 -841 0
-251 841 0
-251 -252 0
-51 -251 -1193 0
-50 252 253 0
50 -252 0
-252 -253 0
-45 253 1192 0
45 253 254 0
-45 -253 -1192 0
45 -253 -254 0
-25 254 -1191 0
-254 1191 0
25 -254 0
-253 255 841 -1016 0
254 255 841 1016 0
-255 -841 0
253 -255 -1016 0
-254 -255 1016 0
19 256 257 0
54 256 257 0
256 257 1195 0
-256 -257 0
-19 -54 -256 -1195 0
-21 -170 257 -1194 0
-257 1194 0
21 -257 0
170 -257 0
-5 166 258 259 0
-5 258 259 267 0
5 -258 0
-258 -259 0
-166 -258 -267 0
259 261 1037 0
21 259 260 261 0
-259 -261 0
-259 -260 -1037 0
-21 -259 -1037 0
-19 260 1044 -1190 0
19 -260 0
-260 1190 0
-260 -1044 0
46 261 262 266 0
46 261 262 -265 0
-46 -261 0
-261 -262 0
-261 265 -266 0
262 -264 841 -1016 0
262 263 841 1016 0
-262 -841 0
-262 264 -1016 0
-262 -263 1016 0
-25 263 -845 0
-263 845 0
25 -263 0
-45 264 1187 0
45 263 264 0
-45 -264 -1187 0
45 -263 -264 0
-50 264 265 0
50 -265 0
-264 -265 0
51 266 -841 0
266 -841 1188 0
-266 841 0
-51 -266 -1188 0
-167 260 267 0
260 267 1189 0
-260 -267 0
167 -267 -1189 0
-62 179 268 269 0
-62 268 269 277 0
62 -268 0
-268 -269 0
-179 -268 -277 0
269 271 500 0
76 269 270 271 0
-269 -271 0
-269 -270 -500 0
-76 -269 -500 0
-74 270 507 -827 0
74 -270 0
-270 827 0
-270 -507 0
103 271 272 276 0
103 271 272 -275 0
-103 -271 0
-271 -272 0
-271 275 -276 0
272 -274 304 -479 0
272 273 304 479 0
-272 -304 0
-272 274 -479 0
-272 -273 479 0
-80 273 -308 0
-273 308 0
80 -273 0
-102 274 824 0
102 273 274 0
-102 -274 -824 0
102 -273 -274 0
-107 274 275 0
107 -275 0
-274 -275 0
109 276 -304 0
276 -304 825 0
-276 304 0
-109 -276 -825 0
-180 270 277 0
270 277 826 0
-270 -277 0
180 -277 -826 0
128 278 279 289 0
-118 278 -279 -289 0
-118 278 279 289 0
128 278 -279 -289 0
-278 279 -289 0
-278 -279 289 0
118 -128 -278 0
-5 279 -280 0
-5 279 288 0
5 -279 0
-279 280 -288 0
19 -54 280 -281 0
-19 -54 280 -1172 0
54 -280 0
19 -280 281 0
-19 -280 1172 0
-21 281 -1171 0
21 281 -282 0
-21 -281 1171 0
21 -281 282 0
46 282 283 287 0
46 282 283 -286 0
-46 -282 0
-282 -283 0
-282 286 -287 0
283 284 -841 1170 0
51 283 284 -841 0
-283 841 0
-283 -284 0
-51 -283 -1170 0
-50 284 285 0
50 -284 0
-284 -285 0
25 45 285 0
-45 285 1169 0
45 285 846 0
-45 -285 -1169 0
-25 45 -285 -846 0
-25 45 286 -846 0
-25 286 -846 1016 0
25 -286 0
-286 846 0
-45 -286 -1016 0
287 841 1169 0
287 841 1016 0
45 287 841 0
-287 -841 0
-45 -287 -1016 -1169 0
-56 282 288 0
281 288 -1037 0
-56 288 -1037 0
281 282 288 0
56 -281 -288 0
-282 -288 1037 0
-62 289 -290 0
-62 289 298 0
62 -289 0
-289 290 -298 0
74 -111 290 -291 0
-74 -111 290 -809 0
111 -290 0
74 -290 291 0
-74 -290 809 0
-76 291 -808 0
76 291 -292 0
-76 -291 808 0
76 -291 292 0
103 292 293 297 0
103 292 293 -296 0
-103 -292 0
-292 -293 0
-292 296 -297 0
293 294 -304 807 0
109 293 294 -304 0
-293 304 0
-293 -294 0
-109 -293 -807 0
-107 294 295 0
107 -294 0
-294 -295 0
80 102 295 0
-102 295 806 0
102 295 309 0
-102 -295 -806 0
-80 102 -295 -309 0
-80 102 296 -309 0
-80 296 -309 479 0
80 -296 0
-296 309 0
-102 -296 -479 0
297 304 806 0
297 304 479 0
102 297 304 0
-297 -304 0
-102 -297 -479 -806 0
-113 292 298 0
291 298 -500 0
-113 298 -500 0
291 292 298 0
113 -291 -298 0
-292 -298 500 0
-65 -67 -68 299 0
65 -299 0
67 -299 0
68 -299 0
-93 300 -301 0
-97 300 -301 0
-100 300 -301 0
-300 301 0
93 97 100 -300 0
81 86 -208 301 -302 0
-81 -301 0
-301 302 0
208 -301 0
-86 -301 0
227 -229 -230 302 -303 0
-227 -302 0
-302 303 0
230 -302 0
229 -302 0
303 -307 -308 0
303 -306 309 0
303 -306 -308 0
303 -307 309 0
-303 308 -309 0
-303 306 307 0
1 2 0
-1 -2 0
1204 0

